decision_x1=[0,2];
decision_x2=[0,2];
decision_x3=[0,2];
decision_x4=[0,2];
decision_x5=[0,2];
random_y1=[0,2];
constraint_x2_x1=[
0,1,4.4|
0,2,4|
1,0,8.6|
1,2,5.6|
2,0,1.4|
2,1,9.6|
];
constraint_x4_x1=[
0,1,3.9|
0,2,3|
1,0,9.7|
1,2,2.5|
2,0,3.2|
2,1,3.5|
];
constraint_x4_x2=[
0,1,1.7|
0,2,8.1|
1,0,2.3|
1,2,8.7|
2,0,6.9|
2,1,5.9|
];
constraint_x4_x3=[
0,1,1|
0,2,0.9|
1,0,0.68|
1,2,0.55|
2,0,6.1|
2,1,3.6|
];
constraint_x5_x2=[
0,1,9.8|
0,2,6.7|
1,0,0.88|
1,2,6.5|
2,0,4.8|
2,1,9.8|
];
constraint_x1_y1=[
0,0,1.7|
0,1,5.4|
0,2,3.3|
1,0,7.3|
1,1,9.9|
1,2,5|
2,0,1|
2,1,0.6|
2,2,2|
];
initial_distribution_y1=[0.27,0.42,0.31];
transition_y1=[
0.1,0.25,0.65|
0.12,0.19,0.69|
0.035,0.6,0.37|
];
